
Gurobi 7.0.1 (win64) logging started 01/30/18 15:38:02

Set parameter TimeLimit to value 3600
Set parameter Threads to value 4

Gurobi Optimizer version 7.0.1 build v7.0.1rc0 (win64)
Copyright (c) 2016, Gurobi Optimization, Inc.

Read LP format model from file waterstop_5_180114_64min_keiro_4team_no30.lp
Reading time = 0.16 seconds
Objective: 31919 rows, 11244 columns, 123961 nonzeros
Optimize a model with 31919 rows, 11244 columns and 123961 nonzeros
Variable types: 72 continuous, 11172 integer (0 binary)
Coefficient statistics:
  Matrix range     [3e-01, 1e+02]
  Objective range  [1e+00, 1e+00]
  Bounds range     [1e+00, 1e+00]
  RHS range        [1e+00, 1e+02]
Presolve removed 31919 rows and 11244 columns
Presolve time: 0.02s
Presolve: All rows and columns removed

Explored 0 nodes (0 simplex iterations) in 0.08 seconds
Thread count was 1 (of 20 available processors)

Solution count 1: 6.0303 
Pool objective bound 6.0303

Optimal solution found (tolerance 1.00e-04)
Best objective 6.030303030303e+00, best bound 6.030303030303e+00, gap 0.0000%

Wrote result file 'waterstop_5_180114_64min_keiro_4team_no30.sol'

